c Reduced graph for GEOM120a generated by Cyril Grelier
p edge 119 1421
e 1 2
e 1 3
e 1 5
e 1 6
e 1 7
e 1 12
e 1 13
e 1 18
e 1 21
e 1 22
e 1 26
e 1 29
e 1 35
e 1 38
e 1 41
e 1 44
e 1 55
e 1 57
e 1 58
e 1 59
e 1 60
e 1 71
e 1 75
e 1 77
e 1 78
e 1 85
e 1 87
e 1 88
e 1 89
e 1 98
e 1 106
e 1 112
e 1 114
e 2 5
e 2 6
e 2 11
e 2 12
e 2 13
e 2 18
e 2 21
e 2 22
e 2 26
e 2 29
e 2 35
e 2 38
e 2 41
e 2 43
e 2 44
e 2 57
e 2 58
e 2 59
e 2 75
e 2 77
e 2 85
e 2 87
e 2 88
e 2 89
e 2 98
e 2 106
e 2 112
e 2 114
e 2 119
e 3 4
e 3 7
e 3 8
e 3 9
e 3 10
e 3 12
e 3 13
e 3 17
e 3 22
e 3 26
e 3 36
e 3 51
e 3 52
e 3 53
e 3 54
e 3 55
e 3 74
e 3 76
e 3 78
e 3 85
e 3 86
e 3 87
e 3 89
e 3 91
e 3 94
e 3 110
e 3 111
e 3 113
e 4 7
e 4 9
e 4 10
e 4 19
e 4 20
e 4 28
e 4 31
e 4 33
e 4 36
e 4 39
e 4 45
e 4 48
e 4 51
e 4 52
e 4 53
e 4 61
e 4 72
e 4 74
e 4 78
e 4 79
e 4 86
e 4 93
e 4 103
e 4 111
e 4 115
e 4 117
e 4 118
e 5 6
e 5 11
e 5 13
e 5 21
e 5 22
e 5 29
e 5 32
e 5 35
e 5 38
e 5 41
e 5 43
e 5 44
e 5 57
e 5 58
e 5 59
e 5 75
e 5 87
e 5 88
e 5 89
e 5 98
e 5 106
e 5 112
e 5 114
e 5 119
e 6 11
e 6 12
e 6 13
e 6 22
e 6 23
e 6 29
e 6 32
e 6 35
e 6 38
e 6 41
e 6 43
e 6 57
e 6 58
e 6 75
e 6 85
e 6 87
e 6 88
e 6 89
e 6 98
e 6 110
e 6 112
e 6 114
e 6 119
e 7 9
e 7 10
e 7 18
e 7 20
e 7 22
e 7 26
e 7 53
e 7 54
e 7 55
e 7 60
e 7 71
e 7 74
e 7 75
e 7 77
e 7 78
e 7 79
e 7 88
e 7 103
e 7 111
e 7 112
e 8 12
e 8 15
e 8 17
e 8 24
e 8 34
e 8 36
e 8 51
e 8 52
e 8 54
e 8 56
e 8 65
e 8 66
e 8 76
e 8 84
e 8 86
e 8 90
e 8 91
e 8 92
e 8 94
e 8 99
e 8 110
e 8 113
e 9 10
e 9 18
e 9 20
e 9 22
e 9 26
e 9 48
e 9 53
e 9 55
e 9 60
e 9 61
e 9 71
e 9 72
e 9 74
e 9 77
e 9 78
e 9 79
e 9 103
e 9 111
e 10 18
e 10 19
e 10 20
e 10 26
e 10 48
e 10 53
e 10 55
e 10 60
e 10 61
e 10 71
e 10 72
e 10 74
e 10 78
e 10 79
e 10 103
e 10 111
e 11 29
e 11 32
e 11 35
e 11 38
e 11 41
e 11 43
e 11 57
e 11 58
e 11 87
e 11 89
e 11 114
e 11 119
e 12 13
e 12 14
e 12 17
e 12 22
e 12 23
e 12 32
e 12 34
e 12 35
e 12 37
e 12 41
e 12 43
e 12 50
e 12 54
e 12 57
e 12 65
e 12 66
e 12 76
e 12 84
e 12 85
e 12 87
e 12 89
e 12 91
e 12 94
e 12 98
e 12 108
e 12 109
e 12 110
e 12 113
e 13 14
e 13 22
e 13 23
e 13 32
e 13 34
e 13 35
e 13 41
e 13 43
e 13 50
e 13 54
e 13 57
e 13 65
e 13 66
e 13 67
e 13 84
e 13 85
e 13 87
e 13 89
e 13 91
e 13 98
e 13 108
e 13 109
e 13 110
e 13 113
e 13 114
e 13 119
e 14 16
e 14 23
e 14 25
e 14 27
e 14 30
e 14 34
e 14 37
e 14 40
e 14 42
e 14 46
e 14 50
e 14 62
e 14 63
e 14 65
e 14 66
e 14 67
e 14 68
e 14 81
e 14 84
e 14 96
e 14 97
e 14 98
e 14 100
e 14 101
e 14 104
e 14 105
e 14 108
e 14 109
e 14 110
e 14 113
e 15 17
e 15 24
e 15 34
e 15 36
e 15 47
e 15 49
e 15 51
e 15 52
e 15 54
e 15 56
e 15 64
e 15 66
e 15 70
e 15 73
e 15 76
e 15 80
e 15 82
e 15 83
e 15 86
e 15 90
e 15 91
e 15 92
e 15 94
e 15 95
e 15 99
e 15 102
e 15 107
e 15 113
e 15 116
e 16 23
e 16 25
e 16 27
e 16 30
e 16 34
e 16 37
e 16 40
e 16 42
e 16 46
e 16 50
e 16 62
e 16 63
e 16 65
e 16 66
e 16 67
e 16 68
e 16 81
e 16 84
e 16 96
e 16 97
e 16 98
e 16 100
e 16 101
e 16 104
e 16 105
e 16 108
e 16 109
e 16 110
e 17 24
e 17 34
e 17 36
e 17 37
e 17 51
e 17 52
e 17 54
e 17 56
e 17 65
e 17 66
e 17 76
e 17 84
e 17 85
e 17 86
e 17 90
e 17 91
e 17 92
e 17 94
e 17 99
e 17 104
e 17 110
e 17 113
e 18 21
e 18 22
e 18 26
e 18 29
e 18 35
e 18 38
e 18 44
e 18 55
e 18 58
e 18 59
e 18 60
e 18 71
e 18 75
e 18 77
e 18 78
e 18 79
e 18 88
e 18 106
e 18 112
e 19 20
e 19 28
e 19 31
e 19 33
e 19 36
e 19 39
e 19 45
e 19 51
e 19 52
e 19 53
e 19 61
e 19 69
e 19 72
e 19 74
e 19 86
e 19 90
e 19 93
e 19 103
e 19 111
e 19 115
e 19 117
e 19 118
e 20 28
e 20 31
e 20 33
e 20 39
e 20 45
e 20 48
e 20 53
e 20 55
e 20 61
e 20 72
e 20 74
e 20 78
e 20 79
e 20 93
e 20 103
e 20 111
e 20 117
e 21 22
e 21 26
e 21 29
e 21 35
e 21 38
e 21 44
e 21 55
e 21 58
e 21 59
e 21 60
e 21 71
e 21 75
e 21 77
e 21 88
e 21 106
e 21 112
e 22 26
e 22 35
e 22 38
e 22 41
e 22 54
e 22 55
e 22 57
e 22 59
e 22 60
e 22 71
e 22 75
e 22 77
e 22 78
e 22 79
e 22 85
e 22 87
e 22 88
e 22 89
e 22 98
e 22 112
e 22 114
e 23 25
e 23 27
e 23 32
e 23 34
e 23 37
e 23 41
e 23 43
e 23 50
e 23 54
e 23 65
e 23 66
e 23 67
e 23 68
e 23 76
e 23 84
e 23 85
e 23 87
e 23 89
e 23 91
e 23 98
e 23 101
e 23 108
e 23 109
e 23 110
e 23 113
e 24 36
e 24 39
e 24 47
e 24 51
e 24 52
e 24 53
e 24 56
e 24 69
e 24 70
e 24 73
e 24 76
e 24 80
e 24 82
e 24 86
e 24 90
e 24 92
e 24 93
e 24 94
e 24 95
e 24 99
e 24 102
e 24 107
e 24 115
e 24 116
e 24 118
e 25 27
e 25 30
e 25 34
e 25 37
e 25 40
e 25 42
e 25 46
e 25 50
e 25 62
e 25 63
e 25 65
e 25 66
e 25 67
e 25 68
e 25 81
e 25 84
e 25 96
e 25 97
e 25 100
e 25 101
e 25 104
e 25 105
e 25 108
e 25 109
e 26 35
e 26 38
e 26 55
e 26 59
e 26 60
e 26 71
e 26 75
e 26 77
e 26 78
e 26 79
e 26 88
e 26 89
e 26 103
e 26 111
e 26 112
e 27 30
e 27 37
e 27 40
e 27 42
e 27 46
e 27 50
e 27 62
e 27 63
e 27 65
e 27 67
e 27 68
e 27 81
e 27 84
e 27 96
e 27 97
e 27 100
e 27 101
e 27 105
e 27 108
e 27 109
e 28 31
e 28 33
e 28 36
e 28 39
e 28 45
e 28 51
e 28 52
e 28 53
e 28 61
e 28 69
e 28 72
e 28 74
e 28 86
e 28 93
e 28 103
e 28 111
e 28 115
e 28 117
e 28 118
e 29 35
e 29 38
e 29 41
e 29 44
e 29 57
e 29 58
e 29 59
e 29 75
e 29 77
e 29 88
e 29 106
e 29 112
e 29 114
e 29 119
e 30 37
e 30 40
e 30 42
e 30 46
e 30 50
e 30 62
e 30 63
e 30 67
e 30 68
e 30 81
e 30 84
e 30 97
e 30 100
e 30 101
e 30 105
e 30 108
e 30 109
e 31 33
e 31 36
e 31 39
e 31 45
e 31 52
e 31 53
e 31 61
e 31 69
e 31 72
e 31 74
e 31 86
e 31 93
e 31 111
e 31 115
e 31 117
e 31 118
e 32 41
e 32 43
e 32 50
e 32 57
e 32 67
e 32 85
e 32 87
e 32 89
e 32 98
e 32 105
e 32 108
e 32 109
e 32 114
e 32 119
e 33 36
e 33 39
e 33 45
e 33 53
e 33 61
e 33 69
e 33 72
e 33 74
e 33 86
e 33 93
e 33 111
e 33 115
e 33 117
e 33 118
e 34 37
e 34 40
e 34 50
e 34 54
e 34 65
e 34 66
e 34 67
e 34 68
e 34 76
e 34 81
e 34 84
e 34 85
e 34 91
e 34 92
e 34 94
e 34 96
e 34 98
e 34 99
e 34 104
e 34 108
e 34 109
e 34 110
e 34 113
e 35 38
e 35 41
e 35 43
e 35 44
e 35 57
e 35 58
e 35 59
e 35 75
e 35 77
e 35 85
e 35 87
e 35 88
e 35 89
e 35 98
e 35 106
e 35 112
e 35 114
e 35 119
e 36 39
e 36 51
e 36 52
e 36 53
e 36 54
e 36 69
e 36 74
e 36 76
e 36 80
e 36 86
e 36 90
e 36 93
e 36 94
e 36 99
e 36 102
e 36 111
e 36 115
e 36 116
e 36 117
e 36 118
e 37 40
e 37 42
e 37 50
e 37 65
e 37 66
e 37 67
e 37 68
e 37 76
e 37 81
e 37 84
e 37 91
e 37 92
e 37 96
e 37 98
e 37 100
e 37 101
e 37 104
e 37 108
e 37 109
e 37 110
e 37 113
e 38 41
e 38 44
e 38 57
e 38 58
e 38 59
e 38 75
e 38 77
e 38 87
e 38 88
e 38 89
e 38 106
e 38 112
e 38 114
e 38 119
e 39 45
e 39 51
e 39 52
e 39 53
e 39 61
e 39 69
e 39 72
e 39 74
e 39 86
e 39 90
e 39 93
e 39 102
e 39 103
e 39 111
e 39 115
e 39 117
e 39 118
e 40 42
e 40 46
e 40 50
e 40 62
e 40 63
e 40 65
e 40 66
e 40 67
e 40 68
e 40 81
e 40 84
e 40 96
e 40 100
e 40 101
e 40 104
e 40 108
e 40 109
e 41 43
e 41 57
e 41 58
e 41 85
e 41 87
e 41 88
e 41 89
e 41 98
e 41 114
e 41 119
e 42 46
e 42 50
e 42 62
e 42 63
e 42 65
e 42 67
e 42 68
e 42 81
e 42 84
e 42 96
e 42 97
e 42 100
e 42 101
e 42 105
e 42 108
e 42 109
e 43 50
e 43 57
e 43 67
e 43 85
e 43 87
e 43 89
e 43 98
e 43 108
e 43 109
e 43 114
e 43 119
e 44 58
e 44 59
e 44 60
e 44 75
e 44 77
e 44 88
e 44 106
e 44 112
e 44 114
e 45 48
e 45 53
e 45 61
e 45 72
e 45 74
e 45 93
e 45 103
e 45 111
e 45 115
e 45 117
e 46 50
e 46 62
e 46 63
e 46 67
e 46 97
e 46 100
e 46 101
e 46 105
e 46 108
e 46 109
e 47 49
e 47 56
e 47 64
e 47 70
e 47 73
e 47 80
e 47 82
e 47 83
e 47 90
e 47 92
e 47 95
e 47 99
e 47 102
e 47 107
e 47 116
e 48 61
e 48 71
e 48 72
e 48 74
e 48 78
e 48 79
e 48 103
e 48 111
e 49 56
e 49 64
e 49 70
e 49 73
e 49 82
e 49 83
e 49 92
e 49 95
e 49 99
e 49 104
e 49 107
e 50 62
e 50 63
e 50 65
e 50 66
e 50 67
e 50 68
e 50 84
e 50 85
e 50 87
e 50 97
e 50 98
e 50 100
e 50 101
e 50 105
e 50 108
e 50 109
e 50 110
e 51 52
e 51 53
e 51 54
e 51 56
e 51 69
e 51 70
e 51 74
e 51 76
e 51 80
e 51 86
e 51 90
e 51 91
e 51 93
e 51 94
e 51 99
e 51 102
e 51 113
e 51 115
e 51 116
e 51 118
e 52 53
e 52 54
e 52 69
e 52 74
e 52 76
e 52 80
e 52 86
e 52 90
e 52 91
e 52 93
e 52 94
e 52 99
e 52 102
e 52 111
e 52 113
e 52 115
e 52 116
e 52 118
e 53 61
e 53 69
e 53 72
e 53 74
e 53 78
e 53 86
e 53 90
e 53 93
e 53 103
e 53 111
e 53 115
e 53 117
e 53 118
e 54 65
e 54 66
e 54 74
e 54 76
e 54 84
e 54 85
e 54 86
e 54 87
e 54 90
e 54 91
e 54 94
e 54 98
e 54 99
e 54 110
e 54 113
e 55 59
e 55 60
e 55 71
e 55 74
e 55 75
e 55 77
e 55 78
e 55 79
e 55 88
e 55 103
e 55 111
e 55 112
e 56 64
e 56 69
e 56 70
e 56 73
e 56 80
e 56 82
e 56 83
e 56 86
e 56 90
e 56 92
e 56 95
e 56 99
e 56 102
e 56 107
e 56 116
e 57 58
e 57 85
e 57 87
e 57 89
e 57 98
e 57 114
e 57 119
e 58 59
e 58 75
e 58 77
e 58 88
e 58 106
e 58 112
e 58 114
e 58 119
e 59 60
e 59 71
e 59 75
e 59 77
e 59 88
e 59 106
e 59 112
e 60 71
e 60 75
e 60 77
e 60 78
e 60 79
e 60 88
e 60 103
e 60 106
e 60 112
e 61 72
e 61 74
e 61 93
e 61 103
e 61 111
e 61 115
e 61 117
e 62 63
e 62 67
e 62 81
e 62 97
e 62 100
e 62 101
e 62 105
e 62 108
e 62 109
e 63 67
e 63 97
e 63 100
e 63 101
e 63 105
e 63 108
e 63 109
e 64 70
e 64 73
e 64 82
e 64 83
e 64 92
e 64 95
e 64 99
e 64 104
e 64 107
e 65 66
e 65 67
e 65 68
e 65 76
e 65 81
e 65 84
e 65 85
e 65 91
e 65 92
e 65 94
e 65 96
e 65 98
e 65 100
e 65 101
e 65 104
e 65 108
e 65 109
e 65 110
e 65 113
e 66 68
e 66 76
e 66 81
e 66 84
e 66 85
e 66 91
e 66 92
e 66 94
e 66 96
e 66 98
e 66 99
e 66 104
e 66 108
e 66 109
e 66 110
e 66 113
e 67 68
e 67 84
e 67 97
e 67 98
e 67 100
e 67 101
e 67 105
e 67 108
e 67 109
e 67 110
e 68 81
e 68 84
e 68 92
e 68 96
e 68 100
e 68 101
e 68 104
e 68 108
e 68 110
e 69 70
e 69 73
e 69 80
e 69 82
e 69 86
e 69 90
e 69 93
e 69 102
e 69 115
e 69 116
e 69 117
e 69 118
e 70 73
e 70 80
e 70 82
e 70 83
e 70 86
e 70 90
e 70 92
e 70 95
e 70 99
e 70 102
e 70 107
e 70 116
e 71 75
e 71 77
e 71 78
e 71 79
e 71 88
e 71 103
e 71 112
e 72 74
e 72 79
e 72 103
e 72 111
e 72 117
e 73 80
e 73 82
e 73 83
e 73 90
e 73 92
e 73 95
e 73 99
e 73 102
e 73 107
e 73 116
e 74 78
e 74 79
e 74 86
e 74 93
e 74 103
e 74 111
e 74 115
e 74 117
e 75 77
e 75 78
e 75 79
e 75 88
e 75 89
e 75 106
e 75 112
e 75 114
e 76 84
e 76 85
e 76 86
e 76 90
e 76 91
e 76 92
e 76 94
e 76 99
e 76 110
e 76 113
e 77 78
e 77 79
e 77 88
e 77 106
e 77 112
e 78 79
e 78 88
e 78 103
e 78 111
e 78 112
e 79 88
e 79 103
e 79 111
e 79 112
e 80 82
e 80 83
e 80 86
e 80 90
e 80 95
e 80 99
e 80 102
e 80 107
e 80 115
e 80 116
e 80 118
e 81 84
e 81 96
e 81 100
e 81 101
e 81 104
e 82 83
e 82 90
e 82 92
e 82 95
e 82 99
e 82 102
e 82 107
e 82 116
e 83 92
e 83 95
e 83 99
e 83 102
e 83 107
e 83 116
e 84 85
e 84 87
e 84 91
e 84 94
e 84 96
e 84 98
e 84 100
e 84 101
e 84 104
e 84 108
e 84 109
e 84 110
e 84 113
e 85 87
e 85 89
e 85 91
e 85 94
e 85 98
e 85 108
e 85 109
e 85 110
e 85 113
e 85 114
e 86 90
e 86 93
e 86 94
e 86 99
e 86 102
e 86 115
e 86 116
e 86 117
e 86 118
e 87 88
e 87 89
e 87 91
e 87 98
e 87 108
e 87 109
e 87 110
e 87 113
e 87 114
e 87 119
e 88 89
e 88 106
e 88 112
e 88 114
e 89 91
e 89 98
e 89 108
e 89 110
e 89 112
e 89 114
e 89 119
e 90 93
e 90 94
e 90 95
e 90 99
e 90 102
e 90 115
e 90 116
e 90 118
e 91 94
e 91 98
e 91 99
e 91 108
e 91 110
e 91 113
e 92 94
e 92 95
e 92 96
e 92 99
e 92 104
e 92 107
e 93 102
e 93 111
e 93 115
e 93 116
e 93 117
e 93 118
e 94 99
e 94 110
e 94 113
e 95 99
e 95 102
e 95 107
e 95 116
e 96 100
e 96 104
e 97 100
e 97 101
e 97 105
e 97 109
e 98 108
e 98 109
e 98 110
e 98 113
e 98 114
e 98 119
e 99 102
e 99 104
e 99 107
e 99 113
e 99 116
e 100 101
e 100 104
e 100 105
e 100 108
e 100 109
e 101 105
e 101 108
e 101 109
e 102 107
e 102 115
e 102 116
e 102 118
e 103 111
e 103 117
e 105 108
e 105 109
e 106 112
e 107 116
e 108 109
e 108 110
e 108 113
e 109 110
e 110 113
e 111 115
e 111 117
e 112 114
e 114 119
e 115 116
e 115 117
e 115 118
e 116 118
e 117 118
